\ENCODING=ISO-8859-1
\Problem name: IloCplex

Maximize
 obj: 2033 vnp1 - 244 (π,ρ)0↑e1 - 324 (π,ρ)1↑e1
      - 205 (π,ρ)2↑e2 - 210 (π,ρ)3↑e2
      - 221 (π,ρ)4↑e2 - 175 (π,ρ)5↑e2
      - 247 (π,ρ)6↑e2 - 250 (π,ρ)7↑e2
      - 250 (π,ρ)8↑e2 - 295 (π,ρ)9↑e2
      - 300 (π,ρ)10↑e2 - 306 (π,ρ)11↑e2
      - 362 (π,ρ)12↑e2 + 1864 vnp2 - 68 (π,ρ)13↑e6
      - 68 (π,ρ)14↑e6 - 68 (π,ρ)15↑e6
      - 68 (π,ρ)16↑e6 - 84 (π,ρ)17↑e6
      - 84 (π,ρ)18↑e6 - 84 (π,ρ)19↑e6
      - 84 (π,ρ)20↑e6 + 1547 vnp3 - 144 (π,ρ)21↑e13
      - 108 (π,ρ)22↑e15 - 126 (π,ρ)23↑e15
      - 72 (π,ρ)24↑e15 - 110 (π,ρ)25↑e15
      - 134 (π,ρ)26↑e15 - 152 (π,ρ)27↑e15
      - 186 (π,ρ)28↑e15 - 204 (π,ρ)29↑e15 + 1650 vnp4
      - 42 (π,ρ)30↑e17 - 81 (π,ρ)31↑e17
      - 90 (π,ρ)32↑e17 - 93 (π,ρ)33↑e17
      - 102 (π,ρ)34↑e17 - 108 (π,ρ)35↑e17
      - 45 (π,ρ)36↑e18 - 60 (π,ρ)37↑e18
      - 60 (π,ρ)38↑e18 - 71 (π,ρ)39↑e18
      - 86 (π,ρ)40↑e18 - 95 (π,ρ)41↑e18
      - 101 (π,ρ)42↑e18 - 110 (π,ρ)43↑e18
      - 191 (π,ρ)44↑e18 - 200 (π,ρ)45↑e18
      - 205 (π,ρ)46↑e18 - 262 (π,ρ)47↑e18
      - 55 (π,ρ)48↑e18 - 100 (π,ρ)49↑e18
      - 102 (π,ρ)50↑e18 - 107 (π,ρ)51↑e18
      - 54 (π,ρ)52↑e19 - 54 (π,ρ)53↑e19
      - 54 (π,ρ)54↑e19 - 38 (π,ρ)55↑e19
      - 62 (π,ρ)56↑e19 - 62 (π,ρ)57↑e19
      - 62 (π,ρ)58↑e19 - 36 (π,ρ)59↑e19
      - 227 (π,ρ)60↑e20 - 230 (π,ρ)61↑e20
      - 239 (π,ρ)62↑e20 - 242 (π,ρ)63↑e20
      - 255 (π,ρ)64↑e20 - 267 (π,ρ)65↑e20
      - 267 (π,ρ)66↑e20 - 305 (π,ρ)67↑e20
      - 242 (π,ρ)68↑e20 - 245 (π,ρ)69↑e20
      - 257 (π,ρ)70↑e20 - 170 (π,ρ)71↑e20
      - 182 (π,ρ)72↑e20 - 185 (π,ρ)73↑e20
      - 185 (π,ρ)74↑e20 + 1001 vnp5 - 72 (π,ρ)75↑e21
      - 120 (π,ρ)76↑e21 - 112 (π,ρ)77↑e22
      - 116 (π,ρ)78↑e22 - 232 (π,ρ)79↑e22
      - 236 (π,ρ)80↑e22 - 238 (π,ρ)81↑e22
      - 160 (π,ρ)82↑e22 - 3 (π,ρ)83↑e23 + 1104 vnp7
      - 96 (π,ρ)84↑e28 - 138 (π,ρ)85↑e28
      - 36 (π,ρ)86↑e29 - 36 (π,ρ)87↑e29
      - 36 (π,ρ)88↑e29 - 69 (π,ρ)89↑e29
      - 69 (π,ρ)90↑e29 - 72 (π,ρ)91↑e29
      - 72 (π,ρ)92↑e29 - 78 (π,ρ)93↑e29
      - 60 (π,ρ)94↑e29 - 66 (π,ρ)95↑e29
      - 92 (π,ρ)96↑e30 + 2310 vnp8 - 54 (π,ρ)97↑e34
      - 54 (π,ρ)98↑e34 - 54 (π,ρ)99↑e34
      - 53 (π,ρ)100↑e34 - 53 (π,ρ)101↑e34
      - 34 (π,ρ)102↑e34 - 34 (π,ρ)103↑e34
      - 34 (π,ρ)104↑e34 - 68 (π,ρ)105↑e34
      - 68 (π,ρ)106↑e34 - 68 (π,ρ)107↑e34
      - 120 (π,ρ)108↑e35 - 132 (π,ρ)109↑e35
      - 115 (π,ρ)110↑e35 - 156 (π,ρ)111↑e35
      - 168 (π,ρ)112↑e35 - 140 (π,ρ)113↑e35
      - 155 (π,ρ)114↑e35 - 155 (π,ρ)115↑e35
      - 247 (π,ρ)116↑e35
Subject To
 _EmbdConstr_vnp1e1#0:   vnp1 - (π,ρ)0↑e1 - (π,ρ)1↑e1
                          = 0
 _EmbdConstr_vnp1e2#1:   vnp1 - (π,ρ)2↑e2 - (π,ρ)3↑e2
                         - (π,ρ)4↑e2 - (π,ρ)5↑e2
                         - (π,ρ)6↑e2 - (π,ρ)7↑e2
                         - (π,ρ)8↑e2 - (π,ρ)9↑e2
                         - (π,ρ)10↑e2 - (π,ρ)11↑e2
                         - (π,ρ)12↑e2  = 0
 _EmbdConstr_vnp1e3#2:   vnp1  = 0
 _EmbdConstr_vnp1e4#3:   vnp1  = 0
 _EmbdConstr_vnp2e5#4:   vnp2  = 0
 _EmbdConstr_vnp2e6#5:   vnp2 - (π,ρ)13↑e6 - (π,ρ)14↑e6
                         - (π,ρ)15↑e6 - (π,ρ)16↑e6
                         - (π,ρ)17↑e6 - (π,ρ)18↑e6
                         - (π,ρ)19↑e6 - (π,ρ)20↑e6  = 0
 _EmbdConstr_vnp2e7#6:   vnp2  = 0
 _EmbdConstr_vnp2e8#7:   vnp2  = 0
 _EmbdConstr_vnp2e9#8:   vnp2  = 0
 _EmbdConstr_vnp2e10#9:  vnp2  = 0
 _EmbdConstr_vnp3e11#10: vnp3  = 0
 _EmbdConstr_vnp3e12#11: vnp3  = 0
 _EmbdConstr_vnp3e13#12: vnp3 - (π,ρ)21↑e13  = 0
 _EmbdConstr_vnp3e14#13: vnp3  = 0
 _EmbdConstr_vnp3e15#14: vnp3 - (π,ρ)22↑e15 - (π,ρ)23↑e15
                         - (π,ρ)24↑e15 - (π,ρ)25↑e15
                         - (π,ρ)26↑e15 - (π,ρ)27↑e15
                         - (π,ρ)28↑e15 - (π,ρ)29↑e15  = 0
 _EmbdConstr_vnp4e16#15: vnp4  = 0
 _EmbdConstr_vnp4e17#16: vnp4 - (π,ρ)30↑e17 - (π,ρ)31↑e17
                         - (π,ρ)32↑e17 - (π,ρ)33↑e17
                         - (π,ρ)34↑e17 - (π,ρ)35↑e17  = 0
 _EmbdConstr_vnp4e18#17: vnp4 - (π,ρ)36↑e18 - (π,ρ)37↑e18
                         - (π,ρ)38↑e18 - (π,ρ)39↑e18
                         - (π,ρ)40↑e18 - (π,ρ)41↑e18
                         - (π,ρ)42↑e18 - (π,ρ)43↑e18
                         - (π,ρ)44↑e18 - (π,ρ)45↑e18
                         - (π,ρ)46↑e18 - (π,ρ)47↑e18
                         - (π,ρ)48↑e18 - (π,ρ)49↑e18
                         - (π,ρ)50↑e18 - (π,ρ)51↑e18  = 0
 _EmbdConstr_vnp4e19#18: vnp4 - (π,ρ)52↑e19 - (π,ρ)53↑e19
                         - (π,ρ)54↑e19 - (π,ρ)55↑e19
                         - (π,ρ)56↑e19 - (π,ρ)57↑e19
                         - (π,ρ)58↑e19 - (π,ρ)59↑e19  = 0
 _EmbdConstr_vnp4e20#19: vnp4 - (π,ρ)60↑e20 - (π,ρ)61↑e20
                         - (π,ρ)62↑e20 - (π,ρ)63↑e20
                         - (π,ρ)64↑e20 - (π,ρ)65↑e20
                         - (π,ρ)66↑e20 - (π,ρ)67↑e20
                         - (π,ρ)68↑e20 - (π,ρ)69↑e20
                         - (π,ρ)70↑e20 - (π,ρ)71↑e20
                         - (π,ρ)72↑e20 - (π,ρ)73↑e20
                         - (π,ρ)74↑e20  = 0
 _EmbdConstr_vnp5e21#20: vnp5 - (π,ρ)75↑e21 - (π,ρ)76↑e21
                          = 0
 _EmbdConstr_vnp5e22#21: vnp5 - (π,ρ)77↑e22 - (π,ρ)78↑e22
                         - (π,ρ)79↑e22 - (π,ρ)80↑e22
                         - (π,ρ)81↑e22 - (π,ρ)82↑e22  = 0
 _EmbdConstr_vnp5e23#22: vnp5 - (π,ρ)83↑e23  = 0
 _EmbdConstr_vnp7e28#23: vnp7 - (π,ρ)84↑e28 - (π,ρ)85↑e28
                          = 0
 _EmbdConstr_vnp7e29#24: vnp7 - (π,ρ)86↑e29 - (π,ρ)87↑e29
                         - (π,ρ)88↑e29 - (π,ρ)89↑e29
                         - (π,ρ)90↑e29 - (π,ρ)91↑e29
                         - (π,ρ)92↑e29 - (π,ρ)93↑e29
                         - (π,ρ)94↑e29 - (π,ρ)95↑e29  = 0
 _EmbdConstr_vnp7e30#25: vnp7 - (π,ρ)96↑e30  = 0
 _EmbdConstr_vnp8e31#26: vnp8  = 0
 _EmbdConstr_vnp8e32#27: vnp8  = 0
 _EmbdConstr_vnp8e33#28: vnp8  = 0
 _EmbdConstr_vnp8e34#29: vnp8 - (π,ρ)97↑e34 - (π,ρ)98↑e34
                         - (π,ρ)99↑e34 - (π,ρ)100↑e34
                         - (π,ρ)101↑e34 - (π,ρ)102↑e34
                         - (π,ρ)103↑e34 - (π,ρ)104↑e34
                         - (π,ρ)105↑e34 - (π,ρ)106↑e34
                         - (π,ρ)107↑e34  = 0
 _EmbdConstr_vnp8e35#30: vnp8 - (π,ρ)108↑e35
                         - (π,ρ)109↑e35 - (π,ρ)110↑e35
                         - (π,ρ)111↑e35 - (π,ρ)112↑e35
                         - (π,ρ)113↑e35 - (π,ρ)114↑e35
                         - (π,ρ)115↑e35 - (π,ρ)116↑e35
                          = 0
 _EmbdConstr_vnp8e36#31: vnp8  = 0
 BwCapConstr_slink1#32:  (π,ρ)3↑e2 + 5 (π,ρ)5↑e2
                         + 5 (π,ρ)6↑e2 + 5 (π,ρ)7↑e2
                         + 5 (π,ρ)8↑e2 + (π,ρ)10↑e2
                         + 5 (π,ρ)11↑e2 + 3 (π,ρ)84↑e28
                         + 2 (π,ρ)96↑e30 <= 20
 BwCapConstr_slink2#33:  5 (π,ρ)2↑e2 + 5 (π,ρ)3↑e2
                         + 5 (π,ρ)4↑e2 + 3 (π,ρ)7↑e2
                         + 5 (π,ρ)9↑e2 + 5 (π,ρ)10↑e2
                         + 5 (π,ρ)11↑e2 + 5 (π,ρ)12↑e2
                         + 3 (π,ρ)85↑e28 <= 20
 BwCapConstr_slink3#34:  4 (π,ρ)0↑e1 <= 20
 BwCapConstr_slink4#35:  4 (π,ρ)0↑e1 + 4 (π,ρ)1↑e1
                         + 2 (π,ρ)22↑e15 + 2 (π,ρ)23↑e15
                         + 2 (π,ρ)24↑e15 + 2 (π,ρ)25↑e15
                         + 2 (π,ρ)26↑e15 + 2 (π,ρ)27↑e15
                         + 2 (π,ρ)28↑e15 + 2 (π,ρ)29↑e15
                         <= 20
 BwCapConstr_slink5#36:  4 (π,ρ)79↑e22 + 4 (π,ρ)80↑e22
                         + 4 (π,ρ)81↑e22 <= 19
 BwCapConstr_slink6#37:  5 (π,ρ)3↑e2 + 5 (π,ρ)5↑e2
                         + 5 (π,ρ)6↑e2 + 5 (π,ρ)7↑e2
                         + 5 (π,ρ)8↑e2 + 5 (π,ρ)10↑e2
                         + (π,ρ)45↑e18 + 5 (π,ρ)46↑e18
                         + 4 (π,ρ)77↑e22 + 4 (π,ρ)78↑e22
                         + 4 (π,ρ)81↑e22 + 4 (π,ρ)82↑e22
                         + 3 (π,ρ)94↑e29 + 3 (π,ρ)95↑e29
                         <= 13
 BwCapConstr_slink7#38:  4 (π,ρ)0↑e1 + 5 (π,ρ)2↑e2
                         + 5 (π,ρ)3↑e2 + 5 (π,ρ)4↑e2
                         + 5 (π,ρ)5↑e2 + 5 (π,ρ)44↑e18
                         + 5 (π,ρ)45↑e18 + 5 (π,ρ)46↑e18
                         + 5 (π,ρ)47↑e18 <= 15
 BwCapConstr_slink8#39:  5 (π,ρ)9↑e2 + 5 (π,ρ)10↑e2
                         + 5 (π,ρ)11↑e2 + 5 (π,ρ)12↑e2
                         + 5 (π,ρ)44↑e18 + 5 (π,ρ)45↑e18
                         + 5 (π,ρ)46↑e18 + 5 (π,ρ)47↑e18
                         + 4 (π,ρ)79↑e22 + 4 (π,ρ)80↑e22
                         + 4 (π,ρ)81↑e22 + 3 (π,ρ)85↑e28
                         <= 14
 BwCapConstr_slink9#40:  4 (π,ρ)0↑e1 + 4 (π,ρ)1↑e1
                         + 5 (π,ρ)9↑e2 + 5 (π,ρ)10↑e2
                         + 5 (π,ρ)11↑e2 + 5 (π,ρ)12↑e2
                         + 3 (π,ρ)30↑e17 + 3 (π,ρ)31↑e17
                         + 3 (π,ρ)32↑e17 + 3 (π,ρ)33↑e17
                         + 3 (π,ρ)34↑e17 + 3 (π,ρ)35↑e17
                         + 5 (π,ρ)40↑e18 + 5 (π,ρ)41↑e18
                         + 5 (π,ρ)42↑e18 + 5 (π,ρ)43↑e18
                         + 5 (π,ρ)45↑e18 + 5 (π,ρ)51↑e18
                         + 4 (π,ρ)76↑e21 + 4 (π,ρ)82↑e22
                         + 5 (π,ρ)111↑e35
                         + 5 (π,ρ)112↑e35 <= 15
 BwCapConstr_slink10#41: 2 (π,ρ)23↑e15 + 2 (π,ρ)27↑e15
                         + 2 (π,ρ)29↑e15 <= 20
 BwCapConstr_slink11#42: 4 (π,ρ)1↑e1 + 2 (π,ρ)22↑e15
                         + 2 (π,ρ)24↑e15 + 2 (π,ρ)25↑e15
                         + 2 (π,ρ)26↑e15 + 2 (π,ρ)28↑e15
                         <= 20
 BwCapConstr_slink12#43: 4 (π,ρ)1↑e1 + 5 (π,ρ)4↑e2
                         + 5 (π,ρ)6↑e2 + 5 (π,ρ)8↑e2
                         + 5 (π,ρ)11↑e2 + 3 (π,ρ)31↑e17
                         + 3 (π,ρ)32↑e17 + 3 (π,ρ)33↑e17
                         + (π,ρ)43↑e18 + (π,ρ)46↑e18
                         + 5 (π,ρ)48↑e18 + 5 (π,ρ)49↑e18
                         + 5 (π,ρ)50↑e18 + 5 (π,ρ)51↑e18
                         + 4 (π,ρ)63↑e20 + 4 (π,ρ)70↑e20
                         + 4 (π,ρ)75↑e21 + 4 (π,ρ)77↑e22
                         + 4 (π,ρ)78↑e22 + 3 (π,ρ)84↑e28
                         + 3 (π,ρ)94↑e29 + 3 (π,ρ)95↑e29
                         + (π,ρ)112↑e35 <= 10
 BwCapConstr_slink13#44: 5 (π,ρ)2↑e2 + 5 (π,ρ)7↑e2
                         + 5 (π,ρ)9↑e2 + 5 (π,ρ)12↑e2
                         + (π,ρ)38↑e18 + 5 (π,ρ)40↑e18
                         + 5 (π,ρ)41↑e18 + 5 (π,ρ)42↑e18
                         + 5 (π,ρ)43↑e18 + 5 (π,ρ)44↑e18
                         + 5 (π,ρ)45↑e18 + 5 (π,ρ)46↑e18
                         + 5 (π,ρ)47↑e18 + 5 (π,ρ)48↑e18
                         + 5 (π,ρ)49↑e18 + 5 (π,ρ)50↑e18
                         + 5 (π,ρ)51↑e18 + 4 (π,ρ)75↑e21
                         + 4 (π,ρ)76↑e21 + 3 (π,ρ)92↑e29
                         + (π,ρ)111↑e35 <= 14
 BwCapConstr_slink14#45: 5 (π,ρ)2↑e2 + 5 (π,ρ)8↑e2
                         + 5 (π,ρ)9↑e2 + (π,ρ)11↑e2
                         + 5 (π,ρ)43↑e18 + (π,ρ)45↑e18
                         + 5 (π,ρ)46↑e18 + 5 (π,ρ)47↑e18
                         + 4 (π,ρ)75↑e21 + 4 (π,ρ)77↑e22
                         + 4 (π,ρ)79↑e22 + 4 (π,ρ)82↑e22
                         + 3 (π,ρ)83↑e23 + 3 (π,ρ)84↑e28
                         + 3 (π,ρ)91↑e29 + 2 (π,ρ)96↑e30
                         + 5 (π,ρ)111↑e35
                         + 2 (π,ρ)112↑e35 <= 19
 BwCapConstr_slink15#46: 3 (π,ρ)12↑e2 + 5 (π,ρ)47↑e18
                         + 5 (π,ρ)51↑e18 + 5 (π,ρ)67↑e20
                         + 4 (π,ρ)78↑e22 + 4 (π,ρ)80↑e22
                         + 3 (π,ρ)94↑e29 + 3 (π,ρ)95↑e29
                         + 2 (π,ρ)96↑e30 <= 13
 BwCapConstr_slink16#47: 2 (π,ρ)12↑e2 + 5 (π,ρ)60↑e20
                         + 5 (π,ρ)61↑e20 + 5 (π,ρ)62↑e20
                         + 5 (π,ρ)63↑e20 + 5 (π,ρ)64↑e20
                         + 5 (π,ρ)65↑e20 + 5 (π,ρ)66↑e20
                         + 5 (π,ρ)67↑e20 + 3 (π,ρ)93↑e29
                         + 2 (π,ρ)96↑e30 <= 17
 BwCapConstr_slink17#48: 2 (π,ρ)22↑e15 + 2 (π,ρ)24↑e15
                         + 2 (π,ρ)25↑e15 + 2 (π,ρ)26↑e15
                         + 2 (π,ρ)28↑e15 <= 20
 BwCapConstr_slink18#49: 5 (π,ρ)47↑e18 + 3 (π,ρ)86↑e29
                         + 3 (π,ρ)87↑e29 + 3 (π,ρ)88↑e29
                         <= 20
 BwCapConstr_slink19#50: 3 (π,ρ)30↑e17 + 3 (π,ρ)31↑e17
                         + 3 (π,ρ)32↑e17 + 3 (π,ρ)33↑e17
                         + 3 (π,ρ)35↑e17 + 2 (π,ρ)47↑e18
                         + 3 (π,ρ)86↑e29 + 3 (π,ρ)87↑e29
                         + 3 (π,ρ)88↑e29 <= 20
 BwCapConstr_slink20#51: 4 (π,ρ)7↑e2 + 5 (π,ρ)8↑e2
                         + 5 (π,ρ)11↑e2 + 5 (π,ρ)36↑e18
                         + 5 (π,ρ)37↑e18 + 5 (π,ρ)38↑e18
                         + 5 (π,ρ)39↑e18 + 5 (π,ρ)42↑e18
                         + 5 (π,ρ)44↑e18 + (π,ρ)51↑e18
                         + 5 (π,ρ)68↑e20 + 5 (π,ρ)69↑e20
                         + 5 (π,ρ)70↑e20 + 5 (π,ρ)71↑e20
                         + 5 (π,ρ)72↑e20 + 5 (π,ρ)73↑e20
                         + 5 (π,ρ)74↑e20 + 4 (π,ρ)76↑e21
                         + 3 (π,ρ)84↑e28 + 3 (π,ρ)85↑e28
                         + 3 (π,ρ)93↑e29 + (π,ρ)99↑e34
                         + 5 (π,ρ)112↑e35 <= 15
 BwCapConstr_slink21#52: 4 (π,ρ)1↑e1 + (π,ρ)4↑e2
                         + 4 (π,ρ)6↑e2 + 3 (π,ρ)34↑e17
                         + 5 (π,ρ)50↑e18 + (π,ρ)51↑e18
                         + 5 (π,ρ)68↑e20 + 5 (π,ρ)69↑e20
                         + 5 (π,ρ)70↑e20 + (π,ρ)73↑e20
                         + 3 (π,ρ)89↑e29 + 3 (π,ρ)90↑e29
                         + 3 (π,ρ)91↑e29 + 3 (π,ρ)92↑e29
                         + 3 (π,ρ)94↑e29 + (π,ρ)98↑e34
                         + (π,ρ)99↑e34 + (π,ρ)100↑e34
                         + (π,ρ)101↑e34 + (π,ρ)105↑e34
                         + (π,ρ)106↑e34 + (π,ρ)107↑e34
                         + 4 (π,ρ)109↑e35
                         + 5 (π,ρ)110↑e35
                         + 5 (π,ρ)111↑e35
                         + 5 (π,ρ)112↑e35 + (π,ρ)114↑e35
                         + (π,ρ)115↑e35 + 4 (π,ρ)116↑e35
                         <= 13
 BwCapConstr_slink22#53: 3 (π,ρ)30↑e17 + 3 (π,ρ)32↑e17
                         + 3 (π,ρ)34↑e17 + 5 (π,ρ)36↑e18
                         + 5 (π,ρ)37↑e18 + 5 (π,ρ)38↑e18
                         + 5 (π,ρ)39↑e18 + (π,ρ)42↑e18
                         + 5 (π,ρ)43↑e18 + (π,ρ)44↑e18
                         + 5 (π,ρ)46↑e18 + 5 (π,ρ)47↑e18
                         + 5 (π,ρ)48↑e18 + 5 (π,ρ)49↑e18
                         + 5 (π,ρ)50↑e18 + 5 (π,ρ)51↑e18
                         + 2 (π,ρ)56↑e19 + 2 (π,ρ)57↑e19
                         + 2 (π,ρ)58↑e19 + 4 (π,ρ)60↑e20
                         + 4 (π,ρ)66↑e20 + 4 (π,ρ)68↑e20
                         + 4 (π,ρ)72↑e20 + 3 (π,ρ)85↑e28
                         + 3 (π,ρ)95↑e29 + (π,ρ)98↑e34
                         + (π,ρ)100↑e34 + (π,ρ)101↑e34
                         + 5 (π,ρ)110↑e35
                         + 5 (π,ρ)111↑e35
                         + 5 (π,ρ)112↑e35
                         + 5 (π,ρ)113↑e35
                         + 5 (π,ρ)114↑e35
                         + 5 (π,ρ)115↑e35 <= 19
 BwCapConstr_slink23#54: 3 (π,ρ)35↑e17 + 2 (π,ρ)56↑e19
                         + 2 (π,ρ)57↑e19 + 2 (π,ρ)58↑e19
                         + 5 (π,ρ)71↑e20 + 5 (π,ρ)72↑e20
                         + 5 (π,ρ)73↑e20 + 5 (π,ρ)74↑e20
                         + 4 (π,ρ)75↑e21 + 4 (π,ρ)77↑e22
                         + 4 (π,ρ)78↑e22 + 4 (π,ρ)79↑e22
                         + (π,ρ)81↑e22 + 5 (π,ρ)113↑e35
                         + 5 (π,ρ)114↑e35
                         + 5 (π,ρ)115↑e35 <= 20
 BwCapConstr_slink24#55: 3 (π,ρ)35↑e17 + 2 (π,ρ)52↑e19
                         + 2 (π,ρ)53↑e19 + 2 (π,ρ)54↑e19
                         + 2 (π,ρ)59↑e19 + 4 (π,ρ)76↑e21
                         + 4 (π,ρ)79↑e22 + 4 (π,ρ)80↑e22
                         + 4 (π,ρ)81↑e22 + 4 (π,ρ)82↑e22
                         + (π,ρ)97↑e34 + (π,ρ)98↑e34
                         + (π,ρ)99↑e34 + 5 (π,ρ)108↑e35
                         + 5 (π,ρ)109↑e35
                         + 5 (π,ρ)116↑e35 <= 20
 BwCapConstr_slink25#56: 3 (π,ρ)21↑e13 + 2 (π,ρ)25↑e15
                         + 3 (π,ρ)31↑e17 + 3 (π,ρ)33↑e17
                         + 5 (π,ρ)37↑e18 + 5 (π,ρ)39↑e18
                         + (π,ρ)40↑e18 + 5 (π,ρ)41↑e18
                         + 5 (π,ρ)48↑e18 + 3 (π,ρ)49↑e18
                         + 5 (π,ρ)50↑e18 + 2 (π,ρ)55↑e19
                         + (π,ρ)61↑e20 + 4 (π,ρ)62↑e20
                         + (π,ρ)63↑e20 + 4 (π,ρ)65↑e20
                         + (π,ρ)69↑e20 + (π,ρ)70↑e20
                         + (π,ρ)74↑e20 + 4 (π,ρ)77↑e22
                         <= 15
 BwCapConstr_slink26#57: 4 (π,ρ)0↑e1 + 4 (π,ρ)1↑e1
                         + 2 (π,ρ)13↑e6 + 2 (π,ρ)14↑e6
                         + 2 (π,ρ)15↑e6 + 2 (π,ρ)16↑e6
                         + 2 (π,ρ)17↑e6 + 2 (π,ρ)18↑e6
                         + 2 (π,ρ)19↑e6 + 2 (π,ρ)20↑e6
                         + 2 (π,ρ)23↑e15 + 2 (π,ρ)25↑e15
                         + 2 (π,ρ)27↑e15 + 2 (π,ρ)29↑e15
                         + (π,ρ)97↑e34 + (π,ρ)98↑e34
                         + (π,ρ)99↑e34 + (π,ρ)100↑e34
                         + (π,ρ)101↑e34 <= 16
 BwCapConstr_slink27#58: 2 (π,ρ)13↑e6 + 2 (π,ρ)14↑e6
                         + 2 (π,ρ)15↑e6 + 2 (π,ρ)16↑e6
                         + 2 (π,ρ)28↑e15 + 2 (π,ρ)29↑e15
                         + (π,ρ)102↑e34 + (π,ρ)103↑e34
                         + (π,ρ)104↑e34 <= 20
 BwCapConstr_slink28#59: 2 (π,ρ)13↑e6 + 2 (π,ρ)14↑e6
                         + 2 (π,ρ)15↑e6 + 2 (π,ρ)16↑e6
                         + 2 (π,ρ)17↑e6 + 2 (π,ρ)18↑e6
                         + 2 (π,ρ)19↑e6 + 2 (π,ρ)20↑e6
                         + 2 (π,ρ)59↑e19 + 4 (π,ρ)75↑e21
                         + 4 (π,ρ)77↑e22 + 4 (π,ρ)82↑e22
                         + (π,ρ)102↑e34 + (π,ρ)103↑e34
                         + (π,ρ)104↑e34 <= 20
 BwCapConstr_slink29#60: 2 (π,ρ)52↑e19 + 2 (π,ρ)53↑e19
                         + 2 (π,ρ)54↑e19 + 2 (π,ρ)56↑e19
                         + 2 (π,ρ)57↑e19 + 2 (π,ρ)58↑e19
                         + 5 (π,ρ)71↑e20 + 5 (π,ρ)72↑e20
                         + 5 (π,ρ)73↑e20 + 5 (π,ρ)74↑e20
                         + 5 (π,ρ)116↑e35 <= 20
 BwCapConstr_slink30#61: (π,ρ)97↑e34 + (π,ρ)98↑e34
                         + (π,ρ)99↑e34 + (π,ρ)102↑e34
                         + (π,ρ)103↑e34 + (π,ρ)104↑e34
                         + 5 (π,ρ)108↑e35
                         + 5 (π,ρ)109↑e35
                         + 5 (π,ρ)113↑e35
                         + 5 (π,ρ)114↑e35
                         + 5 (π,ρ)115↑e35 <= 20
 BwCapConstr_slink31#62: 4 (π,ρ)1↑e1 + 5 (π,ρ)39↑e18
                         + 5 (π,ρ)50↑e18 + 5 (π,ρ)60↑e20
                         + 5 (π,ρ)61↑e20 + 5 (π,ρ)62↑e20
                         + 5 (π,ρ)63↑e20 + 5 (π,ρ)67↑e20
                         + 5 (π,ρ)68↑e20 + 5 (π,ρ)69↑e20
                         + 5 (π,ρ)70↑e20 + 5 (π,ρ)73↑e20
                         + (π,ρ)101↑e34 + (π,ρ)105↑e34
                         + (π,ρ)106↑e34 + (π,ρ)107↑e34
                         + 5 (π,ρ)116↑e35 <= 15
 BwCapConstr_slink32#63: 3 (π,ρ)32↑e17 + 3 (π,ρ)34↑e17
                         <= 20
 BwCapConstr_slink33#64: 5 (π,ρ)4↑e2 + 2 (π,ρ)51↑e18
                         + 5 (π,ρ)60↑e20 + 5 (π,ρ)61↑e20
                         + 5 (π,ρ)62↑e20 + 5 (π,ρ)63↑e20
                         + 5 (π,ρ)67↑e20 + 4 (π,ρ)80↑e22
                         + 3 (π,ρ)89↑e29 + 3 (π,ρ)90↑e29
                         + 3 (π,ρ)91↑e29 + 3 (π,ρ)92↑e29
                         + 2 (π,ρ)95↑e29 + (π,ρ)111↑e35
                         + (π,ρ)112↑e35 <= 18
 BwCapConstr_slink34#65: 5 (π,ρ)64↑e20 + 5 (π,ρ)65↑e20
                         + 5 (π,ρ)66↑e20 + 5 (π,ρ)67↑e20
                         <= 16
 BwCapConstr_slink36#66: 5 (π,ρ)64↑e20 + 5 (π,ρ)65↑e20
                         + 5 (π,ρ)66↑e20 + 5 (π,ρ)67↑e20
                         <= 16
 BwCapConstr_slink37#67: 3 (π,ρ)21↑e13 + 3 (π,ρ)33↑e17
                         + (π,ρ)37↑e18 + (π,ρ)39↑e18
                         + (π,ρ)41↑e18 + 5 (π,ρ)49↑e18
                         + 2 (π,ρ)50↑e18 + 2 (π,ρ)55↑e19
                         + 2 (π,ρ)59↑e19 + 2 (π,ρ)62↑e20
                         + 5 (π,ρ)63↑e20 + 5 (π,ρ)70↑e20
                         + 4 (π,ρ)78↑e22 + (π,ρ)101↑e34
                         <= 15
 BwCapConstr_slink38#68: 2 (π,ρ)17↑e6 + 2 (π,ρ)18↑e6
                         + 2 (π,ρ)19↑e6 + 2 (π,ρ)20↑e6
                         + 2 (π,ρ)28↑e15 + 2 (π,ρ)29↑e15
                         <= 20
 BwCapConstr_slink40#69: 3 (π,ρ)21↑e13 + (π,ρ)97↑e34
                         + (π,ρ)100↑e34 + (π,ρ)105↑e34
                         + (π,ρ)106↑e34 + (π,ρ)107↑e34
                         <= 16
 BwCapConstr_slink41#70: 2 (π,ρ)17↑e6 + 2 (π,ρ)18↑e6
                         + 2 (π,ρ)19↑e6 + 2 (π,ρ)20↑e6
                         + 2 (π,ρ)26↑e15 + 2 (π,ρ)27↑e15
                         <= 20
 BwCapConstr_slink42#71: 2 (π,ρ)22↑e15 + 2 (π,ρ)23↑e15
                         + 2 (π,ρ)24↑e15 + (π,ρ)105↑e34
                         + (π,ρ)106↑e34 + (π,ρ)107↑e34
                         <= 16
 BwCapConstr_slink43#72: 2 (π,ρ)26↑e15 + 2 (π,ρ)27↑e15
                         + 2 (π,ρ)28↑e15 + 2 (π,ρ)29↑e15
                         <= 20
 BwCapConstr_slink44#73: 2 (π,ρ)22↑e15 + 2 (π,ρ)23↑e15
                         + 2 (π,ρ)26↑e15 + 2 (π,ρ)27↑e15
                         + 2 (π,ρ)28↑e15 + 2 (π,ρ)29↑e15
                         <= 20
Bounds
 0 <= vnp1 <= 1
 0 <= (π,ρ)0↑e1 <= 1
 0 <= (π,ρ)1↑e1 <= 1
 0 <= (π,ρ)2↑e2 <= 1
 0 <= (π,ρ)3↑e2 <= 1
 0 <= (π,ρ)4↑e2 <= 1
 0 <= (π,ρ)5↑e2 <= 1
 0 <= (π,ρ)6↑e2 <= 1
 0 <= (π,ρ)7↑e2 <= 1
 0 <= (π,ρ)8↑e2 <= 1
 0 <= (π,ρ)9↑e2 <= 1
 0 <= (π,ρ)10↑e2 <= 1
 0 <= (π,ρ)11↑e2 <= 1
 0 <= (π,ρ)12↑e2 <= 1
 0 <= vnp2 <= 1
 0 <= (π,ρ)13↑e6 <= 1
 0 <= (π,ρ)14↑e6 <= 1
 0 <= (π,ρ)15↑e6 <= 1
 0 <= (π,ρ)16↑e6 <= 1
 0 <= (π,ρ)17↑e6 <= 1
 0 <= (π,ρ)18↑e6 <= 1
 0 <= (π,ρ)19↑e6 <= 1
 0 <= (π,ρ)20↑e6 <= 1
 0 <= vnp3 <= 1
 0 <= (π,ρ)21↑e13 <= 1
 0 <= (π,ρ)22↑e15 <= 1
 0 <= (π,ρ)23↑e15 <= 1
 0 <= (π,ρ)24↑e15 <= 1
 0 <= (π,ρ)25↑e15 <= 1
 0 <= (π,ρ)26↑e15 <= 1
 0 <= (π,ρ)27↑e15 <= 1
 0 <= (π,ρ)28↑e15 <= 1
 0 <= (π,ρ)29↑e15 <= 1
 0 <= vnp4 <= 1
 0 <= (π,ρ)30↑e17 <= 1
 0 <= (π,ρ)31↑e17 <= 1
 0 <= (π,ρ)32↑e17 <= 1
 0 <= (π,ρ)33↑e17 <= 1
 0 <= (π,ρ)34↑e17 <= 1
 0 <= (π,ρ)35↑e17 <= 1
 0 <= (π,ρ)36↑e18 <= 1
 0 <= (π,ρ)37↑e18 <= 1
 0 <= (π,ρ)38↑e18 <= 1
 0 <= (π,ρ)39↑e18 <= 1
 0 <= (π,ρ)40↑e18 <= 1
 0 <= (π,ρ)41↑e18 <= 1
 0 <= (π,ρ)42↑e18 <= 1
 0 <= (π,ρ)43↑e18 <= 1
 0 <= (π,ρ)44↑e18 <= 1
 0 <= (π,ρ)45↑e18 <= 1
 0 <= (π,ρ)46↑e18 <= 1
 0 <= (π,ρ)47↑e18 <= 1
 0 <= (π,ρ)48↑e18 <= 1
 0 <= (π,ρ)49↑e18 <= 1
 0 <= (π,ρ)50↑e18 <= 1
 0 <= (π,ρ)51↑e18 <= 1
 0 <= (π,ρ)52↑e19 <= 1
 0 <= (π,ρ)53↑e19 <= 1
 0 <= (π,ρ)54↑e19 <= 1
 0 <= (π,ρ)55↑e19 <= 1
 0 <= (π,ρ)56↑e19 <= 1
 0 <= (π,ρ)57↑e19 <= 1
 0 <= (π,ρ)58↑e19 <= 1
 0 <= (π,ρ)59↑e19 <= 1
 0 <= (π,ρ)60↑e20 <= 1
 0 <= (π,ρ)61↑e20 <= 1
 0 <= (π,ρ)62↑e20 <= 1
 0 <= (π,ρ)63↑e20 <= 1
 0 <= (π,ρ)64↑e20 <= 1
 0 <= (π,ρ)65↑e20 <= 1
 0 <= (π,ρ)66↑e20 <= 1
 0 <= (π,ρ)67↑e20 <= 1
 0 <= (π,ρ)68↑e20 <= 1
 0 <= (π,ρ)69↑e20 <= 1
 0 <= (π,ρ)70↑e20 <= 1
 0 <= (π,ρ)71↑e20 <= 1
 0 <= (π,ρ)72↑e20 <= 1
 0 <= (π,ρ)73↑e20 <= 1
 0 <= (π,ρ)74↑e20 <= 1
 0 <= vnp5 <= 1
 0 <= (π,ρ)75↑e21 <= 1
 0 <= (π,ρ)76↑e21 <= 1
 0 <= (π,ρ)77↑e22 <= 1
 0 <= (π,ρ)78↑e22 <= 1
 0 <= (π,ρ)79↑e22 <= 1
 0 <= (π,ρ)80↑e22 <= 1
 0 <= (π,ρ)81↑e22 <= 1
 0 <= (π,ρ)82↑e22 <= 1
 0 <= (π,ρ)83↑e23 <= 1
 0 <= vnp7 <= 1
 0 <= (π,ρ)84↑e28 <= 1
 0 <= (π,ρ)85↑e28 <= 1
 0 <= (π,ρ)86↑e29 <= 1
 0 <= (π,ρ)87↑e29 <= 1
 0 <= (π,ρ)88↑e29 <= 1
 0 <= (π,ρ)89↑e29 <= 1
 0 <= (π,ρ)90↑e29 <= 1
 0 <= (π,ρ)91↑e29 <= 1
 0 <= (π,ρ)92↑e29 <= 1
 0 <= (π,ρ)93↑e29 <= 1
 0 <= (π,ρ)94↑e29 <= 1
 0 <= (π,ρ)95↑e29 <= 1
 0 <= (π,ρ)96↑e30 <= 1
 0 <= vnp8 <= 1
 0 <= (π,ρ)97↑e34 <= 1
 0 <= (π,ρ)98↑e34 <= 1
 0 <= (π,ρ)99↑e34 <= 1
 0 <= (π,ρ)100↑e34 <= 1
 0 <= (π,ρ)101↑e34 <= 1
 0 <= (π,ρ)102↑e34 <= 1
 0 <= (π,ρ)103↑e34 <= 1
 0 <= (π,ρ)104↑e34 <= 1
 0 <= (π,ρ)105↑e34 <= 1
 0 <= (π,ρ)106↑e34 <= 1
 0 <= (π,ρ)107↑e34 <= 1
 0 <= (π,ρ)108↑e35 <= 1
 0 <= (π,ρ)109↑e35 <= 1
 0 <= (π,ρ)110↑e35 <= 1
 0 <= (π,ρ)111↑e35 <= 1
 0 <= (π,ρ)112↑e35 <= 1
 0 <= (π,ρ)113↑e35 <= 1
 0 <= (π,ρ)114↑e35 <= 1
 0 <= (π,ρ)115↑e35 <= 1
 0 <= (π,ρ)116↑e35 <= 1
Binaries
 vnp1  (π,ρ)0↑e1  (π,ρ)1↑e1  (π,ρ)2↑e2 
 (π,ρ)3↑e2  (π,ρ)4↑e2  (π,ρ)5↑e2 
 (π,ρ)6↑e2  (π,ρ)7↑e2  (π,ρ)8↑e2 
 (π,ρ)9↑e2  (π,ρ)10↑e2  (π,ρ)11↑e2 
 (π,ρ)12↑e2  vnp2  (π,ρ)13↑e6  (π,ρ)14↑e6 
 (π,ρ)15↑e6  (π,ρ)16↑e6  (π,ρ)17↑e6 
 (π,ρ)18↑e6  (π,ρ)19↑e6  (π,ρ)20↑e6  vnp3 
 (π,ρ)21↑e13  (π,ρ)22↑e15  (π,ρ)23↑e15 
 (π,ρ)24↑e15  (π,ρ)25↑e15  (π,ρ)26↑e15 
 (π,ρ)27↑e15  (π,ρ)28↑e15  (π,ρ)29↑e15  vnp4 
 (π,ρ)30↑e17  (π,ρ)31↑e17  (π,ρ)32↑e17 
 (π,ρ)33↑e17  (π,ρ)34↑e17  (π,ρ)35↑e17 
 (π,ρ)36↑e18  (π,ρ)37↑e18  (π,ρ)38↑e18 
 (π,ρ)39↑e18  (π,ρ)40↑e18  (π,ρ)41↑e18 
 (π,ρ)42↑e18  (π,ρ)43↑e18  (π,ρ)44↑e18 
 (π,ρ)45↑e18  (π,ρ)46↑e18  (π,ρ)47↑e18 
 (π,ρ)48↑e18  (π,ρ)49↑e18  (π,ρ)50↑e18 
 (π,ρ)51↑e18  (π,ρ)52↑e19  (π,ρ)53↑e19 
 (π,ρ)54↑e19  (π,ρ)55↑e19  (π,ρ)56↑e19 
 (π,ρ)57↑e19  (π,ρ)58↑e19  (π,ρ)59↑e19 
 (π,ρ)60↑e20  (π,ρ)61↑e20  (π,ρ)62↑e20 
 (π,ρ)63↑e20  (π,ρ)64↑e20  (π,ρ)65↑e20 
 (π,ρ)66↑e20  (π,ρ)67↑e20  (π,ρ)68↑e20 
 (π,ρ)69↑e20  (π,ρ)70↑e20  (π,ρ)71↑e20 
 (π,ρ)72↑e20  (π,ρ)73↑e20  (π,ρ)74↑e20  vnp5 
 (π,ρ)75↑e21  (π,ρ)76↑e21  (π,ρ)77↑e22 
 (π,ρ)78↑e22  (π,ρ)79↑e22  (π,ρ)80↑e22 
 (π,ρ)81↑e22  (π,ρ)82↑e22  (π,ρ)83↑e23  vnp7 
 (π,ρ)84↑e28  (π,ρ)85↑e28  (π,ρ)86↑e29 
 (π,ρ)87↑e29  (π,ρ)88↑e29  (π,ρ)89↑e29 
 (π,ρ)90↑e29  (π,ρ)91↑e29  (π,ρ)92↑e29 
 (π,ρ)93↑e29  (π,ρ)94↑e29  (π,ρ)95↑e29 
 (π,ρ)96↑e30  vnp8  (π,ρ)97↑e34  (π,ρ)98↑e34 
 (π,ρ)99↑e34  (π,ρ)100↑e34  (π,ρ)101↑e34 
 (π,ρ)102↑e34  (π,ρ)103↑e34  (π,ρ)104↑e34 
 (π,ρ)105↑e34  (π,ρ)106↑e34  (π,ρ)107↑e34 
 (π,ρ)108↑e35  (π,ρ)109↑e35  (π,ρ)110↑e35 
 (π,ρ)111↑e35  (π,ρ)112↑e35  (π,ρ)113↑e35 
 (π,ρ)114↑e35  (π,ρ)115↑e35  (π,ρ)116↑e35 
End
